p cnf 20 41
-9 -10 -7 0
-15 13 -9 0
-12 1 6 0
8 2 -18 0
-14 17 12 0
-9 -7 -3 0
3 -6 -2 0
10 -17 19 0
7 10 -2 0
-2 -18 9 0
-17 6 5 0
-13 3 5 0
-7 3 -15 0
16 -14 17 0
4 3 -9 0
4 -16 10 0
-6 -7 15 0
17 -8 -11 0
-10 11 -16 0
-16 13 3 0
-12 -1 -9 0
-4 -7 -18 0
-15 10 9 0
-7 -3 -2 0
-13 -16 -4 0
-20 -14 5 0
10 -1 -5 0
18 -6 11 0
8 -15 16 0
10 -15 -1 0
-6 -1 -20 0
-12 -16 14 0
7 13 -16 0
-12 6 14 0
-11 -18 -16 0
-7 -9 -18 0
5 2 10 0
-9 -3 -15 0
-13 -2 -8 0
20 -10 18 0
-19 -7 -5 0
